logs/miss/ip/miss-06-15-0.lp
\ LP format - for model browsing. Use MPS format to capture full model detail.
Minimize
  z0 + z1 + z2 + z3 + z4 + z5 + z6 + z7 + z8 + z9
Subject To
 R0: x0,1_6 + x0,1_7 + x0,1_8 + x0,1_15 + x0,1_16 + x0,1_21 - z1 <= 0
 R1: x0,2_6 + x0,2_7 + x0,2_8 + x0,2_15 + x0,2_16 + x0,2_21 - z2 <= 0
 R2: x0,3_6 + x0,3_7 + x0,3_8 + x0,3_15 + x0,3_16 + x0,3_21 - z3 <= 0
 R3: x0,4_6 + x0,4_7 + x0,4_8 + x0,4_15 + x0,4_16 + x0,4_21 - z4 <= 0
 R4: x0,5_6 + x0,5_7 + x0,5_8 + x0,5_15 + x0,5_16 + x0,5_21 - z5 <= 0
 R5: x0,6_6 + x0,6_7 + x0,6_8 + x0,6_15 + x0,6_16 + x0,6_21 - z6 <= 0
 R6: x0,7_6 + x0,7_7 + x0,7_8 + x0,7_15 + x0,7_16 + x0,7_21 - z7 <= 0
 R7: x0,8_6 + x0,8_7 + x0,8_8 + x0,8_15 + x0,8_16 + x0,8_21 - z8 <= 0
 R8: x0,9_6 + x0,9_7 + x0,9_8 + x0,9_15 + x0,9_16 + x0,9_21 - z9 <= 0
 R9: x1,2_6 + x1,2_7 + x1,2_8 + x1,2_15 + x1,2_16 + x1,2_21 - z2 <= 0
 R10: x1,3_6 + x1,3_7 + x1,3_8 + x1,3_15 + x1,3_16 + x1,3_21 - z3 <= 0
 R11: x1,4_6 + x1,4_7 + x1,4_8 + x1,4_15 + x1,4_16 + x1,4_21 - z4 <= 0
 R12: x1,5_6 + x1,5_7 + x1,5_8 + x1,5_15 + x1,5_16 + x1,5_21 - z5 <= 0
 R13: x1,6_6 + x1,6_7 + x1,6_8 + x1,6_15 + x1,6_16 + x1,6_21 - z6 <= 0
 R14: x1,7_6 + x1,7_7 + x1,7_8 + x1,7_15 + x1,7_16 + x1,7_21 - z7 <= 0
 R15: x1,8_6 + x1,8_7 + x1,8_8 + x1,8_15 + x1,8_16 + x1,8_21 - z8 <= 0
 R16: x1,9_6 + x1,9_7 + x1,9_8 + x1,9_15 + x1,9_16 + x1,9_21 - z9 <= 0
 R17: x2,3_6 + x2,3_7 + x2,3_8 + x2,3_15 + x2,3_16 + x2,3_21 - z3 <= 0
 R18: x2,4_6 + x2,4_7 + x2,4_8 + x2,4_15 + x2,4_16 + x2,4_21 - z4 <= 0
 R19: x2,5_6 + x2,5_7 + x2,5_8 + x2,5_15 + x2,5_16 + x2,5_21 - z5 <= 0
 R20: x2,6_6 + x2,6_7 + x2,6_8 + x2,6_15 + x2,6_16 + x2,6_21 - z6 <= 0
 R21: x2,7_6 + x2,7_7 + x2,7_8 + x2,7_15 + x2,7_16 + x2,7_21 - z7 <= 0
 R22: x2,8_6 + x2,8_7 + x2,8_8 + x2,8_15 + x2,8_16 + x2,8_21 - z8 <= 0
 R23: x2,9_6 + x2,9_7 + x2,9_8 + x2,9_15 + x2,9_16 + x2,9_21 - z9 <= 0
 R24: x3,4_6 + x3,4_7 + x3,4_8 + x3,4_15 + x3,4_16 + x3,4_21 - z4 <= 0
 R25: x3,5_6 + x3,5_7 + x3,5_8 + x3,5_15 + x3,5_16 + x3,5_21 - z5 <= 0
 R26: x3,6_6 + x3,6_7 + x3,6_8 + x3,6_15 + x3,6_16 + x3,6_21 - z6 <= 0
 R27: x3,7_6 + x3,7_7 + x3,7_8 + x3,7_15 + x3,7_16 + x3,7_21 - z7 <= 0
 R28: x3,8_6 + x3,8_7 + x3,8_8 + x3,8_15 + x3,8_16 + x3,8_21 - z8 <= 0
 R29: x3,9_6 + x3,9_7 + x3,9_8 + x3,9_15 + x3,9_16 + x3,9_21 - z9 <= 0
 R30: x4,5_6 + x4,5_7 + x4,5_8 + x4,5_15 + x4,5_16 + x4,5_21 - z5 <= 0
 R31: x4,6_6 + x4,6_7 + x4,6_8 + x4,6_15 + x4,6_16 + x4,6_21 - z6 <= 0
 R32: x4,7_6 + x4,7_7 + x4,7_8 + x4,7_15 + x4,7_16 + x4,7_21 - z7 <= 0
 R33: x4,8_6 + x4,8_7 + x4,8_8 + x4,8_15 + x4,8_16 + x4,8_21 - z8 <= 0
 R34: x4,9_6 + x4,9_7 + x4,9_8 + x4,9_15 + x4,9_16 + x4,9_21 - z9 <= 0
 R35: x5,6_6 + x5,6_7 + x5,6_8 + x5,6_15 + x5,6_16 + x5,6_21 - z6 <= 0
 R36: x5,7_6 + x5,7_7 + x5,7_8 + x5,7_15 + x5,7_16 + x5,7_21 - z7 <= 0
 R37: x5,8_6 + x5,8_7 + x5,8_8 + x5,8_15 + x5,8_16 + x5,8_21 - z8 <= 0
 R38: x5,9_6 + x5,9_7 + x5,9_8 + x5,9_15 + x5,9_16 + x5,9_21 - z9 <= 0
 R39: x6,7_6 + x6,7_7 + x6,7_8 + x6,7_15 + x6,7_16 + x6,7_21 - z7 <= 0
 R40: x6,8_6 + x6,8_7 + x6,8_8 + x6,8_15 + x6,8_16 + x6,8_21 - z8 <= 0
 R41: x6,9_6 + x6,9_7 + x6,9_8 + x6,9_15 + x6,9_16 + x6,9_21 - z9 <= 0
 R42: x7,8_6 + x7,8_7 + x7,8_8 + x7,8_15 + x7,8_16 + x7,8_21 - z8 <= 0
 R43: x7,9_6 + x7,9_7 + x7,9_8 + x7,9_15 + x7,9_16 + x7,9_21 - z9 <= 0
 R44: x8,9_6 + x8,9_7 + x8,9_8 + x8,9_15 + x8,9_16 + x8,9_21 - z9 <= 0
 R45: x0,1_6 + x0,2_6 + x0,3_6 + x0,4_6 + x0,5_6 + x0,6_6 + x0,7_6 + x0,8_6
   + x0,9_6 + x1,2_6 + x1,3_6 + x1,4_6 + x1,5_6 + x1,6_6 + x1,7_6 + x1,8_6
   + x1,9_6 + x2,3_6 + x2,4_6 + x2,5_6 + x2,6_6 + x2,7_6 + x2,8_6 + x2,9_6
   + x3,4_6 + x3,5_6 + x3,6_6 + x3,7_6 + x3,8_6 + x3,9_6 + x4,5_6 + x4,6_6
   + x4,7_6 + x4,8_6 + x4,9_6 + x5,6_6 + x5,7_6 + x5,8_6 + x5,9_6 + x6,7_6
   + x6,8_6 + x6,9_6 + x7,8_6 + x7,9_6 + x8,9_6 = 1
 R46: x0,1_7 + x0,2_7 + x0,3_7 + x0,4_7 + x0,5_7 + x0,6_7 + x0,7_7 + x0,8_7
   + x0,9_7 + x1,2_7 + x1,3_7 + x1,4_7 + x1,5_7 + x1,6_7 + x1,7_7 + x1,8_7
   + x1,9_7 + x2,3_7 + x2,4_7 + x2,5_7 + x2,6_7 + x2,7_7 + x2,8_7 + x2,9_7
   + x3,4_7 + x3,5_7 + x3,6_7 + x3,7_7 + x3,8_7 + x3,9_7 + x4,5_7 + x4,6_7
   + x4,7_7 + x4,8_7 + x4,9_7 + x5,6_7 + x5,7_7 + x5,8_7 + x5,9_7 + x6,7_7
   + x6,8_7 + x6,9_7 + x7,8_7 + x7,9_7 + x8,9_7 = 1
 R47: x0,1_8 + x0,2_8 + x0,3_8 + x0,4_8 + x0,5_8 + x0,6_8 + x0,7_8 + x0,8_8
   + x0,9_8 + x1,2_8 + x1,3_8 + x1,4_8 + x1,5_8 + x1,6_8 + x1,7_8 + x1,8_8
   + x1,9_8 + x2,3_8 + x2,4_8 + x2,5_8 + x2,6_8 + x2,7_8 + x2,8_8 + x2,9_8
   + x3,4_8 + x3,5_8 + x3,6_8 + x3,7_8 + x3,8_8 + x3,9_8 + x4,5_8 + x4,6_8
   + x4,7_8 + x4,8_8 + x4,9_8 + x5,6_8 + x5,7_8 + x5,8_8 + x5,9_8 + x6,7_8
   + x6,8_8 + x6,9_8 + x7,8_8 + x7,9_8 + x8,9_8 = 3
 R48: x0,1_15 + x0,2_15 + x0,3_15 + x0,4_15 + x0,5_15 + x0,6_15 + x0,7_15
   + x0,8_15 + x0,9_15 + x1,2_15 + x1,3_15 + x1,4_15 + x1,5_15 + x1,6_15
   + x1,7_15 + x1,8_15 + x1,9_15 + x2,3_15 + x2,4_15 + x2,5_15 + x2,6_15
   + x2,7_15 + x2,8_15 + x2,9_15 + x3,4_15 + x3,5_15 + x3,6_15 + x3,7_15
   + x3,8_15 + x3,9_15 + x4,5_15 + x4,6_15 + x4,7_15 + x4,8_15 + x4,9_15
   + x5,6_15 + x5,7_15 + x5,8_15 + x5,9_15 + x6,7_15 + x6,8_15 + x6,9_15
   + x7,8_15 + x7,9_15 + x8,9_15 = 1
 R49: x0,1_16 + x0,2_16 + x0,3_16 + x0,4_16 + x0,5_16 + x0,6_16 + x0,7_16
   + x0,8_16 + x0,9_16 + x1,2_16 + x1,3_16 + x1,4_16 + x1,5_16 + x1,6_16
   + x1,7_16 + x1,8_16 + x1,9_16 + x2,3_16 + x2,4_16 + x2,5_16 + x2,6_16
   + x2,7_16 + x2,8_16 + x2,9_16 + x3,4_16 + x3,5_16 + x3,6_16 + x3,7_16
   + x3,8_16 + x3,9_16 + x4,5_16 + x4,6_16 + x4,7_16 + x4,8_16 + x4,9_16
   + x5,6_16 + x5,7_16 + x5,8_16 + x5,9_16 + x6,7_16 + x6,8_16 + x6,9_16
   + x7,8_16 + x7,9_16 + x8,9_16 = 2
 R50: x0,1_21 + x0,2_21 + x0,3_21 + x0,4_21 + x0,5_21 + x0,6_21 + x0,7_21
   + x0,8_21 + x0,9_21 + x1,2_21 + x1,3_21 + x1,4_21 + x1,5_21 + x1,6_21
   + x1,7_21 + x1,8_21 + x1,9_21 + x2,3_21 + x2,4_21 + x2,5_21 + x2,6_21
   + x2,7_21 + x2,8_21 + x2,9_21 + x3,4_21 + x3,5_21 + x3,6_21 + x3,7_21
   + x3,8_21 + x3,9_21 + x4,5_21 + x4,6_21 + x4,7_21 + x4,8_21 + x4,9_21
   + x5,6_21 + x5,7_21 + x5,8_21 + x5,9_21 + x6,7_21 + x6,8_21 + x6,9_21
   + x7,8_21 + x7,9_21 + x8,9_21 = 1
 R51: p0 - p1 <= -1
 R52: - 6 x0,1_6 - p0 + p1 >= 0
 R53: 105 x0,1_6 - p0 + p1 <= 111
 R54: - 7 x0,1_7 - p0 + p1 >= 0
 R55: 105 x0,1_7 - p0 + p1 <= 112
 R56: - 8 x0,1_8 - p0 + p1 >= 0
 R57: 105 x0,1_8 - p0 + p1 <= 113
 R58: - 15 x0,1_15 - p0 + p1 >= 0
 R59: 105 x0,1_15 - p0 + p1 <= 120
 R60: - 16 x0,1_16 - p0 + p1 >= 0
 R61: 105 x0,1_16 - p0 + p1 <= 121
 R62: - 21 x0,1_21 - p0 + p1 >= 0
 R63: 105 x0,1_21 - p0 + p1 <= 126
 R64: p0 - p2 <= -1
 R65: - 6 x0,2_6 - p0 + p2 >= 0
 R66: 105 x0,2_6 - p0 + p2 <= 111
 R67: - 7 x0,2_7 - p0 + p2 >= 0
 R68: 105 x0,2_7 - p0 + p2 <= 112
 R69: - 8 x0,2_8 - p0 + p2 >= 0
 R70: 105 x0,2_8 - p0 + p2 <= 113
 R71: - 15 x0,2_15 - p0 + p2 >= 0
 R72: 105 x0,2_15 - p0 + p2 <= 120
 R73: - 16 x0,2_16 - p0 + p2 >= 0
 R74: 105 x0,2_16 - p0 + p2 <= 121
 R75: - 21 x0,2_21 - p0 + p2 >= 0
 R76: 105 x0,2_21 - p0 + p2 <= 126
 R77: p0 - p3 <= -1
 R78: - 6 x0,3_6 - p0 + p3 >= 0
 R79: 105 x0,3_6 - p0 + p3 <= 111
 R80: - 7 x0,3_7 - p0 + p3 >= 0
 R81: 105 x0,3_7 - p0 + p3 <= 112
 R82: - 8 x0,3_8 - p0 + p3 >= 0
 R83: 105 x0,3_8 - p0 + p3 <= 113
 R84: - 15 x0,3_15 - p0 + p3 >= 0
 R85: 105 x0,3_15 - p0 + p3 <= 120
 R86: - 16 x0,3_16 - p0 + p3 >= 0
 R87: 105 x0,3_16 - p0 + p3 <= 121
 R88: - 21 x0,3_21 - p0 + p3 >= 0
 R89: 105 x0,3_21 - p0 + p3 <= 126
 R90: p0 - p4 <= -1
 R91: - 6 x0,4_6 - p0 + p4 >= 0
 R92: 105 x0,4_6 - p0 + p4 <= 111
 R93: - 7 x0,4_7 - p0 + p4 >= 0
 R94: 105 x0,4_7 - p0 + p4 <= 112
 R95: - 8 x0,4_8 - p0 + p4 >= 0
 R96: 105 x0,4_8 - p0 + p4 <= 113
 R97: - 15 x0,4_15 - p0 + p4 >= 0
 R98: 105 x0,4_15 - p0 + p4 <= 120
 R99: - 16 x0,4_16 - p0 + p4 >= 0
 R100: 105 x0,4_16 - p0 + p4 <= 121
 R101: - 21 x0,4_21 - p0 + p4 >= 0
 R102: 105 x0,4_21 - p0 + p4 <= 126
 R103: p0 - p5 <= -1
 R104: - 6 x0,5_6 - p0 + p5 >= 0
 R105: 105 x0,5_6 - p0 + p5 <= 111
 R106: - 7 x0,5_7 - p0 + p5 >= 0
 R107: 105 x0,5_7 - p0 + p5 <= 112
 R108: - 8 x0,5_8 - p0 + p5 >= 0
 R109: 105 x0,5_8 - p0 + p5 <= 113
 R110: - 15 x0,5_15 - p0 + p5 >= 0
 R111: 105 x0,5_15 - p0 + p5 <= 120
 R112: - 16 x0,5_16 - p0 + p5 >= 0
 R113: 105 x0,5_16 - p0 + p5 <= 121
 R114: - 21 x0,5_21 - p0 + p5 >= 0
 R115: 105 x0,5_21 - p0 + p5 <= 126
 R116: p0 - p6 <= -1
 R117: - 6 x0,6_6 - p0 + p6 >= 0
 R118: 105 x0,6_6 - p0 + p6 <= 111
 R119: - 7 x0,6_7 - p0 + p6 >= 0
 R120: 105 x0,6_7 - p0 + p6 <= 112
 R121: - 8 x0,6_8 - p0 + p6 >= 0
 R122: 105 x0,6_8 - p0 + p6 <= 113
 R123: - 15 x0,6_15 - p0 + p6 >= 0
 R124: 105 x0,6_15 - p0 + p6 <= 120
 R125: - 16 x0,6_16 - p0 + p6 >= 0
 R126: 105 x0,6_16 - p0 + p6 <= 121
 R127: - 21 x0,6_21 - p0 + p6 >= 0
 R128: 105 x0,6_21 - p0 + p6 <= 126
 R129: p0 - p7 <= -1
 R130: - 6 x0,7_6 - p0 + p7 >= 0
 R131: 105 x0,7_6 - p0 + p7 <= 111
 R132: - 7 x0,7_7 - p0 + p7 >= 0
 R133: 105 x0,7_7 - p0 + p7 <= 112
 R134: - 8 x0,7_8 - p0 + p7 >= 0
 R135: 105 x0,7_8 - p0 + p7 <= 113
 R136: - 15 x0,7_15 - p0 + p7 >= 0
 R137: 105 x0,7_15 - p0 + p7 <= 120
 R138: - 16 x0,7_16 - p0 + p7 >= 0
 R139: 105 x0,7_16 - p0 + p7 <= 121
 R140: - 21 x0,7_21 - p0 + p7 >= 0
 R141: 105 x0,7_21 - p0 + p7 <= 126
 R142: p0 - p8 <= -1
 R143: - 6 x0,8_6 - p0 + p8 >= 0
 R144: 105 x0,8_6 - p0 + p8 <= 111
 R145: - 7 x0,8_7 - p0 + p8 >= 0
 R146: 105 x0,8_7 - p0 + p8 <= 112
 R147: - 8 x0,8_8 - p0 + p8 >= 0
 R148: 105 x0,8_8 - p0 + p8 <= 113
 R149: - 15 x0,8_15 - p0 + p8 >= 0
 R150: 105 x0,8_15 - p0 + p8 <= 120
 R151: - 16 x0,8_16 - p0 + p8 >= 0
 R152: 105 x0,8_16 - p0 + p8 <= 121
 R153: - 21 x0,8_21 - p0 + p8 >= 0
 R154: 105 x0,8_21 - p0 + p8 <= 126
 R155: p0 - p9 <= -1
 R156: - 6 x0,9_6 - p0 + p9 >= 0
 R157: 105 x0,9_6 - p0 + p9 <= 111
 R158: - 7 x0,9_7 - p0 + p9 >= 0
 R159: 105 x0,9_7 - p0 + p9 <= 112
 R160: - 8 x0,9_8 - p0 + p9 >= 0
 R161: 105 x0,9_8 - p0 + p9 <= 113
 R162: - 15 x0,9_15 - p0 + p9 >= 0
 R163: 105 x0,9_15 - p0 + p9 <= 120
 R164: - 16 x0,9_16 - p0 + p9 >= 0
 R165: 105 x0,9_16 - p0 + p9 <= 121
 R166: - 21 x0,9_21 - p0 + p9 >= 0
 R167: 105 x0,9_21 - p0 + p9 <= 126
 R168: p1 - p2 <= -1
 R169: - 6 x1,2_6 - p1 + p2 >= 0
 R170: 105 x1,2_6 - p1 + p2 <= 111
 R171: - 7 x1,2_7 - p1 + p2 >= 0
 R172: 105 x1,2_7 - p1 + p2 <= 112
 R173: - 8 x1,2_8 - p1 + p2 >= 0
 R174: 105 x1,2_8 - p1 + p2 <= 113
 R175: - 15 x1,2_15 - p1 + p2 >= 0
 R176: 105 x1,2_15 - p1 + p2 <= 120
 R177: - 16 x1,2_16 - p1 + p2 >= 0
 R178: 105 x1,2_16 - p1 + p2 <= 121
 R179: - 21 x1,2_21 - p1 + p2 >= 0
 R180: 105 x1,2_21 - p1 + p2 <= 126
 R181: p1 - p3 <= -1
 R182: - 6 x1,3_6 - p1 + p3 >= 0
 R183: 105 x1,3_6 - p1 + p3 <= 111
 R184: - 7 x1,3_7 - p1 + p3 >= 0
 R185: 105 x1,3_7 - p1 + p3 <= 112
 R186: - 8 x1,3_8 - p1 + p3 >= 0
 R187: 105 x1,3_8 - p1 + p3 <= 113
 R188: - 15 x1,3_15 - p1 + p3 >= 0
 R189: 105 x1,3_15 - p1 + p3 <= 120
 R190: - 16 x1,3_16 - p1 + p3 >= 0
 R191: 105 x1,3_16 - p1 + p3 <= 121
 R192: - 21 x1,3_21 - p1 + p3 >= 0
 R193: 105 x1,3_21 - p1 + p3 <= 126
 R194: p1 - p4 <= -1
 R195: - 6 x1,4_6 - p1 + p4 >= 0
 R196: 105 x1,4_6 - p1 + p4 <= 111
 R197: - 7 x1,4_7 - p1 + p4 >= 0
 R198: 105 x1,4_7 - p1 + p4 <= 112
 R199: - 8 x1,4_8 - p1 + p4 >= 0
 R200: 105 x1,4_8 - p1 + p4 <= 113
 R201: - 15 x1,4_15 - p1 + p4 >= 0
 R202: 105 x1,4_15 - p1 + p4 <= 120
 R203: - 16 x1,4_16 - p1 + p4 >= 0
 R204: 105 x1,4_16 - p1 + p4 <= 121
 R205: - 21 x1,4_21 - p1 + p4 >= 0
 R206: 105 x1,4_21 - p1 + p4 <= 126
 R207: p1 - p5 <= -1
 R208: - 6 x1,5_6 - p1 + p5 >= 0
 R209: 105 x1,5_6 - p1 + p5 <= 111
 R210: - 7 x1,5_7 - p1 + p5 >= 0
 R211: 105 x1,5_7 - p1 + p5 <= 112
 R212: - 8 x1,5_8 - p1 + p5 >= 0
 R213: 105 x1,5_8 - p1 + p5 <= 113
 R214: - 15 x1,5_15 - p1 + p5 >= 0
 R215: 105 x1,5_15 - p1 + p5 <= 120
 R216: - 16 x1,5_16 - p1 + p5 >= 0
 R217: 105 x1,5_16 - p1 + p5 <= 121
 R218: - 21 x1,5_21 - p1 + p5 >= 0
 R219: 105 x1,5_21 - p1 + p5 <= 126
 R220: p1 - p6 <= -1
 R221: - 6 x1,6_6 - p1 + p6 >= 0
 R222: 105 x1,6_6 - p1 + p6 <= 111
 R223: - 7 x1,6_7 - p1 + p6 >= 0
 R224: 105 x1,6_7 - p1 + p6 <= 112
 R225: - 8 x1,6_8 - p1 + p6 >= 0
 R226: 105 x1,6_8 - p1 + p6 <= 113
 R227: - 15 x1,6_15 - p1 + p6 >= 0
 R228: 105 x1,6_15 - p1 + p6 <= 120
 R229: - 16 x1,6_16 - p1 + p6 >= 0
 R230: 105 x1,6_16 - p1 + p6 <= 121
 R231: - 21 x1,6_21 - p1 + p6 >= 0
 R232: 105 x1,6_21 - p1 + p6 <= 126
 R233: p1 - p7 <= -1
 R234: - 6 x1,7_6 - p1 + p7 >= 0
 R235: 105 x1,7_6 - p1 + p7 <= 111
 R236: - 7 x1,7_7 - p1 + p7 >= 0
 R237: 105 x1,7_7 - p1 + p7 <= 112
 R238: - 8 x1,7_8 - p1 + p7 >= 0
 R239: 105 x1,7_8 - p1 + p7 <= 113
 R240: - 15 x1,7_15 - p1 + p7 >= 0
 R241: 105 x1,7_15 - p1 + p7 <= 120
 R242: - 16 x1,7_16 - p1 + p7 >= 0
 R243: 105 x1,7_16 - p1 + p7 <= 121
 R244: - 21 x1,7_21 - p1 + p7 >= 0
 R245: 105 x1,7_21 - p1 + p7 <= 126
 R246: p1 - p8 <= -1
 R247: - 6 x1,8_6 - p1 + p8 >= 0
 R248: 105 x1,8_6 - p1 + p8 <= 111
 R249: - 7 x1,8_7 - p1 + p8 >= 0
 R250: 105 x1,8_7 - p1 + p8 <= 112
 R251: - 8 x1,8_8 - p1 + p8 >= 0
 R252: 105 x1,8_8 - p1 + p8 <= 113
 R253: - 15 x1,8_15 - p1 + p8 >= 0
 R254: 105 x1,8_15 - p1 + p8 <= 120
 R255: - 16 x1,8_16 - p1 + p8 >= 0
 R256: 105 x1,8_16 - p1 + p8 <= 121
 R257: - 21 x1,8_21 - p1 + p8 >= 0
 R258: 105 x1,8_21 - p1 + p8 <= 126
 R259: p1 - p9 <= -1
 R260: - 6 x1,9_6 - p1 + p9 >= 0
 R261: 105 x1,9_6 - p1 + p9 <= 111
 R262: - 7 x1,9_7 - p1 + p9 >= 0
 R263: 105 x1,9_7 - p1 + p9 <= 112
 R264: - 8 x1,9_8 - p1 + p9 >= 0
 R265: 105 x1,9_8 - p1 + p9 <= 113
 R266: - 15 x1,9_15 - p1 + p9 >= 0
 R267: 105 x1,9_15 - p1 + p9 <= 120
 R268: - 16 x1,9_16 - p1 + p9 >= 0
 R269: 105 x1,9_16 - p1 + p9 <= 121
 R270: - 21 x1,9_21 - p1 + p9 >= 0
 R271: 105 x1,9_21 - p1 + p9 <= 126
 R272: p2 - p3 <= -1
 R273: - 6 x2,3_6 - p2 + p3 >= 0
 R274: 105 x2,3_6 - p2 + p3 <= 111
 R275: - 7 x2,3_7 - p2 + p3 >= 0
 R276: 105 x2,3_7 - p2 + p3 <= 112
 R277: - 8 x2,3_8 - p2 + p3 >= 0
 R278: 105 x2,3_8 - p2 + p3 <= 113
 R279: - 15 x2,3_15 - p2 + p3 >= 0
 R280: 105 x2,3_15 - p2 + p3 <= 120
 R281: - 16 x2,3_16 - p2 + p3 >= 0
 R282: 105 x2,3_16 - p2 + p3 <= 121
 R283: - 21 x2,3_21 - p2 + p3 >= 0
 R284: 105 x2,3_21 - p2 + p3 <= 126
 R285: p2 - p4 <= -1
 R286: - 6 x2,4_6 - p2 + p4 >= 0
 R287: 105 x2,4_6 - p2 + p4 <= 111
 R288: - 7 x2,4_7 - p2 + p4 >= 0
 R289: 105 x2,4_7 - p2 + p4 <= 112
 R290: - 8 x2,4_8 - p2 + p4 >= 0
 R291: 105 x2,4_8 - p2 + p4 <= 113
 R292: - 15 x2,4_15 - p2 + p4 >= 0
 R293: 105 x2,4_15 - p2 + p4 <= 120
 R294: - 16 x2,4_16 - p2 + p4 >= 0
 R295: 105 x2,4_16 - p2 + p4 <= 121
 R296: - 21 x2,4_21 - p2 + p4 >= 0
 R297: 105 x2,4_21 - p2 + p4 <= 126
 R298: p2 - p5 <= -1
 R299: - 6 x2,5_6 - p2 + p5 >= 0
 R300: 105 x2,5_6 - p2 + p5 <= 111
 R301: - 7 x2,5_7 - p2 + p5 >= 0
 R302: 105 x2,5_7 - p2 + p5 <= 112
 R303: - 8 x2,5_8 - p2 + p5 >= 0
 R304: 105 x2,5_8 - p2 + p5 <= 113
 R305: - 15 x2,5_15 - p2 + p5 >= 0
 R306: 105 x2,5_15 - p2 + p5 <= 120
 R307: - 16 x2,5_16 - p2 + p5 >= 0
 R308: 105 x2,5_16 - p2 + p5 <= 121
 R309: - 21 x2,5_21 - p2 + p5 >= 0
 R310: 105 x2,5_21 - p2 + p5 <= 126
 R311: p2 - p6 <= -1
 R312: - 6 x2,6_6 - p2 + p6 >= 0
 R313: 105 x2,6_6 - p2 + p6 <= 111
 R314: - 7 x2,6_7 - p2 + p6 >= 0
 R315: 105 x2,6_7 - p2 + p6 <= 112
 R316: - 8 x2,6_8 - p2 + p6 >= 0
 R317: 105 x2,6_8 - p2 + p6 <= 113
 R318: - 15 x2,6_15 - p2 + p6 >= 0
 R319: 105 x2,6_15 - p2 + p6 <= 120
 R320: - 16 x2,6_16 - p2 + p6 >= 0
 R321: 105 x2,6_16 - p2 + p6 <= 121
 R322: - 21 x2,6_21 - p2 + p6 >= 0
 R323: 105 x2,6_21 - p2 + p6 <= 126
 R324: p2 - p7 <= -1
 R325: - 6 x2,7_6 - p2 + p7 >= 0
 R326: 105 x2,7_6 - p2 + p7 <= 111
 R327: - 7 x2,7_7 - p2 + p7 >= 0
 R328: 105 x2,7_7 - p2 + p7 <= 112
 R329: - 8 x2,7_8 - p2 + p7 >= 0
 R330: 105 x2,7_8 - p2 + p7 <= 113
 R331: - 15 x2,7_15 - p2 + p7 >= 0
 R332: 105 x2,7_15 - p2 + p7 <= 120
 R333: - 16 x2,7_16 - p2 + p7 >= 0
 R334: 105 x2,7_16 - p2 + p7 <= 121
 R335: - 21 x2,7_21 - p2 + p7 >= 0
 R336: 105 x2,7_21 - p2 + p7 <= 126
 R337: p2 - p8 <= -1
 R338: - 6 x2,8_6 - p2 + p8 >= 0
 R339: 105 x2,8_6 - p2 + p8 <= 111
 R340: - 7 x2,8_7 - p2 + p8 >= 0
 R341: 105 x2,8_7 - p2 + p8 <= 112
 R342: - 8 x2,8_8 - p2 + p8 >= 0
 R343: 105 x2,8_8 - p2 + p8 <= 113
 R344: - 15 x2,8_15 - p2 + p8 >= 0
 R345: 105 x2,8_15 - p2 + p8 <= 120
 R346: - 16 x2,8_16 - p2 + p8 >= 0
 R347: 105 x2,8_16 - p2 + p8 <= 121
 R348: - 21 x2,8_21 - p2 + p8 >= 0
 R349: 105 x2,8_21 - p2 + p8 <= 126
 R350: p2 - p9 <= -1
 R351: - 6 x2,9_6 - p2 + p9 >= 0
 R352: 105 x2,9_6 - p2 + p9 <= 111
 R353: - 7 x2,9_7 - p2 + p9 >= 0
 R354: 105 x2,9_7 - p2 + p9 <= 112
 R355: - 8 x2,9_8 - p2 + p9 >= 0
 R356: 105 x2,9_8 - p2 + p9 <= 113
 R357: - 15 x2,9_15 - p2 + p9 >= 0
 R358: 105 x2,9_15 - p2 + p9 <= 120
 R359: - 16 x2,9_16 - p2 + p9 >= 0
 R360: 105 x2,9_16 - p2 + p9 <= 121
 R361: - 21 x2,9_21 - p2 + p9 >= 0
 R362: 105 x2,9_21 - p2 + p9 <= 126
 R363: p3 - p4 <= -1
 R364: - 6 x3,4_6 - p3 + p4 >= 0
 R365: 105 x3,4_6 - p3 + p4 <= 111
 R366: - 7 x3,4_7 - p3 + p4 >= 0
 R367: 105 x3,4_7 - p3 + p4 <= 112
 R368: - 8 x3,4_8 - p3 + p4 >= 0
 R369: 105 x3,4_8 - p3 + p4 <= 113
 R370: - 15 x3,4_15 - p3 + p4 >= 0
 R371: 105 x3,4_15 - p3 + p4 <= 120
 R372: - 16 x3,4_16 - p3 + p4 >= 0
 R373: 105 x3,4_16 - p3 + p4 <= 121
 R374: - 21 x3,4_21 - p3 + p4 >= 0
 R375: 105 x3,4_21 - p3 + p4 <= 126
 R376: p3 - p5 <= -1
 R377: - 6 x3,5_6 - p3 + p5 >= 0
 R378: 105 x3,5_6 - p3 + p5 <= 111
 R379: - 7 x3,5_7 - p3 + p5 >= 0
 R380: 105 x3,5_7 - p3 + p5 <= 112
 R381: - 8 x3,5_8 - p3 + p5 >= 0
 R382: 105 x3,5_8 - p3 + p5 <= 113
 R383: - 15 x3,5_15 - p3 + p5 >= 0
 R384: 105 x3,5_15 - p3 + p5 <= 120
 R385: - 16 x3,5_16 - p3 + p5 >= 0
 R386: 105 x3,5_16 - p3 + p5 <= 121
 R387: - 21 x3,5_21 - p3 + p5 >= 0
 R388: 105 x3,5_21 - p3 + p5 <= 126
 R389: p3 - p6 <= -1
 R390: - 6 x3,6_6 - p3 + p6 >= 0
 R391: 105 x3,6_6 - p3 + p6 <= 111
 R392: - 7 x3,6_7 - p3 + p6 >= 0
 R393: 105 x3,6_7 - p3 + p6 <= 112
 R394: - 8 x3,6_8 - p3 + p6 >= 0
 R395: 105 x3,6_8 - p3 + p6 <= 113
 R396: - 15 x3,6_15 - p3 + p6 >= 0
 R397: 105 x3,6_15 - p3 + p6 <= 120
 R398: - 16 x3,6_16 - p3 + p6 >= 0
 R399: 105 x3,6_16 - p3 + p6 <= 121
 R400: - 21 x3,6_21 - p3 + p6 >= 0
 R401: 105 x3,6_21 - p3 + p6 <= 126
 R402: p3 - p7 <= -1
 R403: - 6 x3,7_6 - p3 + p7 >= 0
 R404: 105 x3,7_6 - p3 + p7 <= 111
 R405: - 7 x3,7_7 - p3 + p7 >= 0
 R406: 105 x3,7_7 - p3 + p7 <= 112
 R407: - 8 x3,7_8 - p3 + p7 >= 0
 R408: 105 x3,7_8 - p3 + p7 <= 113
 R409: - 15 x3,7_15 - p3 + p7 >= 0
 R410: 105 x3,7_15 - p3 + p7 <= 120
 R411: - 16 x3,7_16 - p3 + p7 >= 0
 R412: 105 x3,7_16 - p3 + p7 <= 121
 R413: - 21 x3,7_21 - p3 + p7 >= 0
 R414: 105 x3,7_21 - p3 + p7 <= 126
 R415: p3 - p8 <= -1
 R416: - 6 x3,8_6 - p3 + p8 >= 0
 R417: 105 x3,8_6 - p3 + p8 <= 111
 R418: - 7 x3,8_7 - p3 + p8 >= 0
 R419: 105 x3,8_7 - p3 + p8 <= 112
 R420: - 8 x3,8_8 - p3 + p8 >= 0
 R421: 105 x3,8_8 - p3 + p8 <= 113
 R422: - 15 x3,8_15 - p3 + p8 >= 0
 R423: 105 x3,8_15 - p3 + p8 <= 120
 R424: - 16 x3,8_16 - p3 + p8 >= 0
 R425: 105 x3,8_16 - p3 + p8 <= 121
 R426: - 21 x3,8_21 - p3 + p8 >= 0
 R427: 105 x3,8_21 - p3 + p8 <= 126
 R428: p3 - p9 <= -1
 R429: - 6 x3,9_6 - p3 + p9 >= 0
 R430: 105 x3,9_6 - p3 + p9 <= 111
 R431: - 7 x3,9_7 - p3 + p9 >= 0
 R432: 105 x3,9_7 - p3 + p9 <= 112
 R433: - 8 x3,9_8 - p3 + p9 >= 0
 R434: 105 x3,9_8 - p3 + p9 <= 113
 R435: - 15 x3,9_15 - p3 + p9 >= 0
 R436: 105 x3,9_15 - p3 + p9 <= 120
 R437: - 16 x3,9_16 - p3 + p9 >= 0
 R438: 105 x3,9_16 - p3 + p9 <= 121
 R439: - 21 x3,9_21 - p3 + p9 >= 0
 R440: 105 x3,9_21 - p3 + p9 <= 126
 R441: p4 - p5 <= -1
 R442: - 6 x4,5_6 - p4 + p5 >= 0
 R443: 105 x4,5_6 - p4 + p5 <= 111
 R444: - 7 x4,5_7 - p4 + p5 >= 0
 R445: 105 x4,5_7 - p4 + p5 <= 112
 R446: - 8 x4,5_8 - p4 + p5 >= 0
 R447: 105 x4,5_8 - p4 + p5 <= 113
 R448: - 15 x4,5_15 - p4 + p5 >= 0
 R449: 105 x4,5_15 - p4 + p5 <= 120
 R450: - 16 x4,5_16 - p4 + p5 >= 0
 R451: 105 x4,5_16 - p4 + p5 <= 121
 R452: - 21 x4,5_21 - p4 + p5 >= 0
 R453: 105 x4,5_21 - p4 + p5 <= 126
 R454: p4 - p6 <= -1
 R455: - 6 x4,6_6 - p4 + p6 >= 0
 R456: 105 x4,6_6 - p4 + p6 <= 111
 R457: - 7 x4,6_7 - p4 + p6 >= 0
 R458: 105 x4,6_7 - p4 + p6 <= 112
 R459: - 8 x4,6_8 - p4 + p6 >= 0
 R460: 105 x4,6_8 - p4 + p6 <= 113
 R461: - 15 x4,6_15 - p4 + p6 >= 0
 R462: 105 x4,6_15 - p4 + p6 <= 120
 R463: - 16 x4,6_16 - p4 + p6 >= 0
 R464: 105 x4,6_16 - p4 + p6 <= 121
 R465: - 21 x4,6_21 - p4 + p6 >= 0
 R466: 105 x4,6_21 - p4 + p6 <= 126
 R467: p4 - p7 <= -1
 R468: - 6 x4,7_6 - p4 + p7 >= 0
 R469: 105 x4,7_6 - p4 + p7 <= 111
 R470: - 7 x4,7_7 - p4 + p7 >= 0
 R471: 105 x4,7_7 - p4 + p7 <= 112
 R472: - 8 x4,7_8 - p4 + p7 >= 0
 R473: 105 x4,7_8 - p4 + p7 <= 113
 R474: - 15 x4,7_15 - p4 + p7 >= 0
 R475: 105 x4,7_15 - p4 + p7 <= 120
 R476: - 16 x4,7_16 - p4 + p7 >= 0
 R477: 105 x4,7_16 - p4 + p7 <= 121
 R478: - 21 x4,7_21 - p4 + p7 >= 0
 R479: 105 x4,7_21 - p4 + p7 <= 126
 R480: p4 - p8 <= -1
 R481: - 6 x4,8_6 - p4 + p8 >= 0
 R482: 105 x4,8_6 - p4 + p8 <= 111
 R483: - 7 x4,8_7 - p4 + p8 >= 0
 R484: 105 x4,8_7 - p4 + p8 <= 112
 R485: - 8 x4,8_8 - p4 + p8 >= 0
 R486: 105 x4,8_8 - p4 + p8 <= 113
 R487: - 15 x4,8_15 - p4 + p8 >= 0
 R488: 105 x4,8_15 - p4 + p8 <= 120
 R489: - 16 x4,8_16 - p4 + p8 >= 0
 R490: 105 x4,8_16 - p4 + p8 <= 121
 R491: - 21 x4,8_21 - p4 + p8 >= 0
 R492: 105 x4,8_21 - p4 + p8 <= 126
 R493: p4 - p9 <= -1
 R494: - 6 x4,9_6 - p4 + p9 >= 0
 R495: 105 x4,9_6 - p4 + p9 <= 111
 R496: - 7 x4,9_7 - p4 + p9 >= 0
 R497: 105 x4,9_7 - p4 + p9 <= 112
 R498: - 8 x4,9_8 - p4 + p9 >= 0
 R499: 105 x4,9_8 - p4 + p9 <= 113
 R500: - 15 x4,9_15 - p4 + p9 >= 0
 R501: 105 x4,9_15 - p4 + p9 <= 120
 R502: - 16 x4,9_16 - p4 + p9 >= 0
 R503: 105 x4,9_16 - p4 + p9 <= 121
 R504: - 21 x4,9_21 - p4 + p9 >= 0
 R505: 105 x4,9_21 - p4 + p9 <= 126
 R506: p5 - p6 <= -1
 R507: - 6 x5,6_6 - p5 + p6 >= 0
 R508: 105 x5,6_6 - p5 + p6 <= 111
 R509: - 7 x5,6_7 - p5 + p6 >= 0
 R510: 105 x5,6_7 - p5 + p6 <= 112
 R511: - 8 x5,6_8 - p5 + p6 >= 0
 R512: 105 x5,6_8 - p5 + p6 <= 113
 R513: - 15 x5,6_15 - p5 + p6 >= 0
 R514: 105 x5,6_15 - p5 + p6 <= 120
 R515: - 16 x5,6_16 - p5 + p6 >= 0
 R516: 105 x5,6_16 - p5 + p6 <= 121
 R517: - 21 x5,6_21 - p5 + p6 >= 0
 R518: 105 x5,6_21 - p5 + p6 <= 126
 R519: p5 - p7 <= -1
 R520: - 6 x5,7_6 - p5 + p7 >= 0
 R521: 105 x5,7_6 - p5 + p7 <= 111
 R522: - 7 x5,7_7 - p5 + p7 >= 0
 R523: 105 x5,7_7 - p5 + p7 <= 112
 R524: - 8 x5,7_8 - p5 + p7 >= 0
 R525: 105 x5,7_8 - p5 + p7 <= 113
 R526: - 15 x5,7_15 - p5 + p7 >= 0
 R527: 105 x5,7_15 - p5 + p7 <= 120
 R528: - 16 x5,7_16 - p5 + p7 >= 0
 R529: 105 x5,7_16 - p5 + p7 <= 121
 R530: - 21 x5,7_21 - p5 + p7 >= 0
 R531: 105 x5,7_21 - p5 + p7 <= 126
 R532: p5 - p8 <= -1
 R533: - 6 x5,8_6 - p5 + p8 >= 0
 R534: 105 x5,8_6 - p5 + p8 <= 111
 R535: - 7 x5,8_7 - p5 + p8 >= 0
 R536: 105 x5,8_7 - p5 + p8 <= 112
 R537: - 8 x5,8_8 - p5 + p8 >= 0
 R538: 105 x5,8_8 - p5 + p8 <= 113
 R539: - 15 x5,8_15 - p5 + p8 >= 0
 R540: 105 x5,8_15 - p5 + p8 <= 120
 R541: - 16 x5,8_16 - p5 + p8 >= 0
 R542: 105 x5,8_16 - p5 + p8 <= 121
 R543: - 21 x5,8_21 - p5 + p8 >= 0
 R544: 105 x5,8_21 - p5 + p8 <= 126
 R545: p5 - p9 <= -1
 R546: - 6 x5,9_6 - p5 + p9 >= 0
 R547: 105 x5,9_6 - p5 + p9 <= 111
 R548: - 7 x5,9_7 - p5 + p9 >= 0
 R549: 105 x5,9_7 - p5 + p9 <= 112
 R550: - 8 x5,9_8 - p5 + p9 >= 0
 R551: 105 x5,9_8 - p5 + p9 <= 113
 R552: - 15 x5,9_15 - p5 + p9 >= 0
 R553: 105 x5,9_15 - p5 + p9 <= 120
 R554: - 16 x5,9_16 - p5 + p9 >= 0
 R555: 105 x5,9_16 - p5 + p9 <= 121
 R556: - 21 x5,9_21 - p5 + p9 >= 0
 R557: 105 x5,9_21 - p5 + p9 <= 126
 R558: p6 - p7 <= -1
 R559: - 6 x6,7_6 - p6 + p7 >= 0
 R560: 105 x6,7_6 - p6 + p7 <= 111
 R561: - 7 x6,7_7 - p6 + p7 >= 0
 R562: 105 x6,7_7 - p6 + p7 <= 112
 R563: - 8 x6,7_8 - p6 + p7 >= 0
 R564: 105 x6,7_8 - p6 + p7 <= 113
 R565: - 15 x6,7_15 - p6 + p7 >= 0
 R566: 105 x6,7_15 - p6 + p7 <= 120
 R567: - 16 x6,7_16 - p6 + p7 >= 0
 R568: 105 x6,7_16 - p6 + p7 <= 121
 R569: - 21 x6,7_21 - p6 + p7 >= 0
 R570: 105 x6,7_21 - p6 + p7 <= 126
 R571: p6 - p8 <= -1
 R572: - 6 x6,8_6 - p6 + p8 >= 0
 R573: 105 x6,8_6 - p6 + p8 <= 111
 R574: - 7 x6,8_7 - p6 + p8 >= 0
 R575: 105 x6,8_7 - p6 + p8 <= 112
 R576: - 8 x6,8_8 - p6 + p8 >= 0
 R577: 105 x6,8_8 - p6 + p8 <= 113
 R578: - 15 x6,8_15 - p6 + p8 >= 0
 R579: 105 x6,8_15 - p6 + p8 <= 120
 R580: - 16 x6,8_16 - p6 + p8 >= 0
 R581: 105 x6,8_16 - p6 + p8 <= 121
 R582: - 21 x6,8_21 - p6 + p8 >= 0
 R583: 105 x6,8_21 - p6 + p8 <= 126
 R584: p6 - p9 <= -1
 R585: - 6 x6,9_6 - p6 + p9 >= 0
 R586: 105 x6,9_6 - p6 + p9 <= 111
 R587: - 7 x6,9_7 - p6 + p9 >= 0
 R588: 105 x6,9_7 - p6 + p9 <= 112
 R589: - 8 x6,9_8 - p6 + p9 >= 0
 R590: 105 x6,9_8 - p6 + p9 <= 113
 R591: - 15 x6,9_15 - p6 + p9 >= 0
 R592: 105 x6,9_15 - p6 + p9 <= 120
 R593: - 16 x6,9_16 - p6 + p9 >= 0
 R594: 105 x6,9_16 - p6 + p9 <= 121
 R595: - 21 x6,9_21 - p6 + p9 >= 0
 R596: 105 x6,9_21 - p6 + p9 <= 126
 R597: p7 - p8 <= -1
 R598: - 6 x7,8_6 - p7 + p8 >= 0
 R599: 105 x7,8_6 - p7 + p8 <= 111
 R600: - 7 x7,8_7 - p7 + p8 >= 0
 R601: 105 x7,8_7 - p7 + p8 <= 112
 R602: - 8 x7,8_8 - p7 + p8 >= 0
 R603: 105 x7,8_8 - p7 + p8 <= 113
 R604: - 15 x7,8_15 - p7 + p8 >= 0
 R605: 105 x7,8_15 - p7 + p8 <= 120
 R606: - 16 x7,8_16 - p7 + p8 >= 0
 R607: 105 x7,8_16 - p7 + p8 <= 121
 R608: - 21 x7,8_21 - p7 + p8 >= 0
 R609: 105 x7,8_21 - p7 + p8 <= 126
 R610: p7 - p9 <= -1
 R611: - 6 x7,9_6 - p7 + p9 >= 0
 R612: 105 x7,9_6 - p7 + p9 <= 111
 R613: - 7 x7,9_7 - p7 + p9 >= 0
 R614: 105 x7,9_7 - p7 + p9 <= 112
 R615: - 8 x7,9_8 - p7 + p9 >= 0
 R616: 105 x7,9_8 - p7 + p9 <= 113
 R617: - 15 x7,9_15 - p7 + p9 >= 0
 R618: 105 x7,9_15 - p7 + p9 <= 120
 R619: - 16 x7,9_16 - p7 + p9 >= 0
 R620: 105 x7,9_16 - p7 + p9 <= 121
 R621: - 21 x7,9_21 - p7 + p9 >= 0
 R622: 105 x7,9_21 - p7 + p9 <= 126
 R623: p8 - p9 <= -1
 R624: - 6 x8,9_6 - p8 + p9 >= 0
 R625: 105 x8,9_6 - p8 + p9 <= 111
 R626: - 7 x8,9_7 - p8 + p9 >= 0
 R627: 105 x8,9_7 - p8 + p9 <= 112
 R628: - 8 x8,9_8 - p8 + p9 >= 0
 R629: 105 x8,9_8 - p8 + p9 <= 113
 R630: - 15 x8,9_15 - p8 + p9 >= 0
 R631: 105 x8,9_15 - p8 + p9 <= 120
 R632: - 16 x8,9_16 - p8 + p9 >= 0
 R633: 105 x8,9_16 - p8 + p9 <= 121
 R634: - 21 x8,9_21 - p8 + p9 >= 0
 R635: 105 x8,9_21 - p8 + p9 <= 126
 R636: z0 - z1 >= 0
 R637: z1 - z2 >= 0
 R638: z2 - z3 >= 0
 R639: z3 - z4 >= 0
 R640: z4 - z5 >= 0
 R641: z5 - z6 >= 0
 R642: z6 - z7 >= 0
 R643: z7 - z8 >= 0
 R644: z8 - z9 >= 0
Bounds
Binaries
 x0,1_6 x0,1_7 x0,1_8 x0,1_15 x0,1_16 x0,1_21 x0,2_6 x0,2_7 x0,2_8 x0,2_15
 x0,2_16 x0,2_21 x0,3_6 x0,3_7 x0,3_8 x0,3_15 x0,3_16 x0,3_21 x0,4_6 x0,4_7
 x0,4_8 x0,4_15 x0,4_16 x0,4_21 x0,5_6 x0,5_7 x0,5_8 x0,5_15 x0,5_16
 x0,5_21 x0,6_6 x0,6_7 x0,6_8 x0,6_15 x0,6_16 x0,6_21 x0,7_6 x0,7_7 x0,7_8
 x0,7_15 x0,7_16 x0,7_21 x0,8_6 x0,8_7 x0,8_8 x0,8_15 x0,8_16 x0,8_21
 x0,9_6 x0,9_7 x0,9_8 x0,9_15 x0,9_16 x0,9_21 x1,2_6 x1,2_7 x1,2_8 x1,2_15
 x1,2_16 x1,2_21 x1,3_6 x1,3_7 x1,3_8 x1,3_15 x1,3_16 x1,3_21 x1,4_6 x1,4_7
 x1,4_8 x1,4_15 x1,4_16 x1,4_21 x1,5_6 x1,5_7 x1,5_8 x1,5_15 x1,5_16
 x1,5_21 x1,6_6 x1,6_7 x1,6_8 x1,6_15 x1,6_16 x1,6_21 x1,7_6 x1,7_7 x1,7_8
 x1,7_15 x1,7_16 x1,7_21 x1,8_6 x1,8_7 x1,8_8 x1,8_15 x1,8_16 x1,8_21
 x1,9_6 x1,9_7 x1,9_8 x1,9_15 x1,9_16 x1,9_21 x2,3_6 x2,3_7 x2,3_8 x2,3_15
 x2,3_16 x2,3_21 x2,4_6 x2,4_7 x2,4_8 x2,4_15 x2,4_16 x2,4_21 x2,5_6 x2,5_7
 x2,5_8 x2,5_15 x2,5_16 x2,5_21 x2,6_6 x2,6_7 x2,6_8 x2,6_15 x2,6_16
 x2,6_21 x2,7_6 x2,7_7 x2,7_8 x2,7_15 x2,7_16 x2,7_21 x2,8_6 x2,8_7 x2,8_8
 x2,8_15 x2,8_16 x2,8_21 x2,9_6 x2,9_7 x2,9_8 x2,9_15 x2,9_16 x2,9_21
 x3,4_6 x3,4_7 x3,4_8 x3,4_15 x3,4_16 x3,4_21 x3,5_6 x3,5_7 x3,5_8 x3,5_15
 x3,5_16 x3,5_21 x3,6_6 x3,6_7 x3,6_8 x3,6_15 x3,6_16 x3,6_21 x3,7_6 x3,7_7
 x3,7_8 x3,7_15 x3,7_16 x3,7_21 x3,8_6 x3,8_7 x3,8_8 x3,8_15 x3,8_16
 x3,8_21 x3,9_6 x3,9_7 x3,9_8 x3,9_15 x3,9_16 x3,9_21 x4,5_6 x4,5_7 x4,5_8
 x4,5_15 x4,5_16 x4,5_21 x4,6_6 x4,6_7 x4,6_8 x4,6_15 x4,6_16 x4,6_21
 x4,7_6 x4,7_7 x4,7_8 x4,7_15 x4,7_16 x4,7_21 x4,8_6 x4,8_7 x4,8_8 x4,8_15
 x4,8_16 x4,8_21 x4,9_6 x4,9_7 x4,9_8 x4,9_15 x4,9_16 x4,9_21 x5,6_6 x5,6_7
 x5,6_8 x5,6_15 x5,6_16 x5,6_21 x5,7_6 x5,7_7 x5,7_8 x5,7_15 x5,7_16
 x5,7_21 x5,8_6 x5,8_7 x5,8_8 x5,8_15 x5,8_16 x5,8_21 x5,9_6 x5,9_7 x5,9_8
 x5,9_15 x5,9_16 x5,9_21 x6,7_6 x6,7_7 x6,7_8 x6,7_15 x6,7_16 x6,7_21
 x6,8_6 x6,8_7 x6,8_8 x6,8_15 x6,8_16 x6,8_21 x6,9_6 x6,9_7 x6,9_8 x6,9_15
 x6,9_16 x6,9_21 x7,8_6 x7,8_7 x7,8_8 x7,8_15 x7,8_16 x7,8_21 x7,9_6 x7,9_7
 x7,9_8 x7,9_15 x7,9_16 x7,9_21 x8,9_6 x8,9_7 x8,9_8 x8,9_15 x8,9_16
 x8,9_21 z0 z1 z2 z3 z4 z5 z6 z7 z8 z9
Generals
 p0 p1 p2 p3 p4 p5 p6 p7 p8 p9
End
