logs/miss/ip/miss-06-15-0.sol
# Objective value = 6
x0,1_6 0
x0,1_7 0
x0,1_8 0
x0,1_15 0
x0,1_16 0
x0,1_21 0
x0,2_6 0
x0,2_7 0
x0,2_8 1
x0,2_15 0
x0,2_16 0
x0,2_21 0
x0,3_6 0
x0,3_7 0
x0,3_8 0
x0,3_15 0
x0,3_16 1
x0,3_21 0
x0,4_6 0
x0,4_7 0
x0,4_8 0
x0,4_15 0
x0,4_16 0
x0,4_21 0
x0,5_6 0
x0,5_7 0
x0,5_8 0
x0,5_15 0
x0,5_16 0
x0,5_21 0
x0,6_6 0
x0,6_7 0
x0,6_8 0
x0,6_15 0
x0,6_16 0
x0,6_21 0
x0,7_6 0
x0,7_7 0
x0,7_8 0
x0,7_15 0
x0,7_16 0
x0,7_21 0
x0,8_6 0
x0,8_7 0
x0,8_8 0
x0,8_15 0
x0,8_16 0
x0,8_21 0
x0,9_6 0
x0,9_7 0
x0,9_8 0
x0,9_15 0
x0,9_16 0
x0,9_21 0
x1,2_6 0
x1,2_7 1
x1,2_8 0
x1,2_15 0
x1,2_16 0
x1,2_21 0
x1,3_6 0
x1,3_7 0
x1,3_8 0
x1,3_15 1
x1,3_16 0
x1,3_21 0
x1,4_6 0
x1,4_7 0
x1,4_8 0
x1,4_15 0
x1,4_16 0
x1,4_21 1
x1,5_6 0
x1,5_7 0
x1,5_8 0
x1,5_15 0
x1,5_16 0
x1,5_21 0
x1,6_6 0
x1,6_7 0
x1,6_8 0
x1,6_15 0
x1,6_16 0
x1,6_21 0
x1,7_6 0
x1,7_7 0
x1,7_8 0
x1,7_15 0
x1,7_16 0
x1,7_21 0
x1,8_6 0
x1,8_7 0
x1,8_8 0
x1,8_15 0
x1,8_16 0
x1,8_21 0
x1,9_6 0
x1,9_7 0
x1,9_8 0
x1,9_15 0
x1,9_16 0
x1,9_21 0
x2,3_6 0
x2,3_7 0
x2,3_8 1
x2,3_15 0
x2,3_16 0
x2,3_21 0
x2,4_6 0
x2,4_7 0
x2,4_8 0
x2,4_15 0
x2,4_16 0
x2,4_21 0
x2,5_6 0
x2,5_7 0
x2,5_8 0
x2,5_15 0
x2,5_16 1
x2,5_21 0
x2,6_6 0
x2,6_7 0
x2,6_8 0
x2,6_15 0
x2,6_16 0
x2,6_21 0
x2,7_6 0
x2,7_7 0
x2,7_8 0
x2,7_15 0
x2,7_16 0
x2,7_21 0
x2,8_6 0
x2,8_7 0
x2,8_8 0
x2,8_15 0
x2,8_16 0
x2,8_21 0
x2,9_6 0
x2,9_7 0
x2,9_8 0
x2,9_15 0
x2,9_16 0
x2,9_21 0
x3,4_6 1
x3,4_7 0
x3,4_8 0
x3,4_15 0
x3,4_16 0
x3,4_21 0
x3,5_6 0
x3,5_7 0
x3,5_8 1
x3,5_15 0
x3,5_16 0
x3,5_21 0
x3,6_6 0
x3,6_7 0
x3,6_8 0
x3,6_15 0
x3,6_16 0
x3,6_21 0
x3,7_6 0
x3,7_7 0
x3,7_8 0
x3,7_15 0
x3,7_16 0
x3,7_21 0
x3,8_6 0
x3,8_7 0
x3,8_8 0
x3,8_15 0
x3,8_16 0
x3,8_21 0
x3,9_6 0
x3,9_7 0
x3,9_8 0
x3,9_15 0
x3,9_16 0
x3,9_21 0
x4,5_6 0
x4,5_7 0
x4,5_8 0
x4,5_15 0
x4,5_16 0
x4,5_21 0
x4,6_6 0
x4,6_7 0
x4,6_8 0
x4,6_15 0
x4,6_16 0
x4,6_21 0
x4,7_6 0
x4,7_7 0
x4,7_8 0
x4,7_15 0
x4,7_16 0
x4,7_21 0
x4,8_6 0
x4,8_7 0
x4,8_8 0
x4,8_15 0
x4,8_16 0
x4,8_21 0
x4,9_6 0
x4,9_7 0
x4,9_8 0
x4,9_15 0
x4,9_16 0
x4,9_21 0
x5,6_6 0
x5,6_7 0
x5,6_8 0
x5,6_15 0
x5,6_16 0
x5,6_21 0
x5,7_6 0
x5,7_7 0
x5,7_8 0
x5,7_15 0
x5,7_16 0
x5,7_21 0
x5,8_6 0
x5,8_7 0
x5,8_8 0
x5,8_15 0
x5,8_16 0
x5,8_21 0
x5,9_6 0
x5,9_7 0
x5,9_8 0
x5,9_15 0
x5,9_16 0
x5,9_21 0
x6,7_6 0
x6,7_7 0
x6,7_8 0
x6,7_15 0
x6,7_16 0
x6,7_21 0
x6,8_6 0
x6,8_7 0
x6,8_8 0
x6,8_15 0
x6,8_16 0
x6,8_21 0
x6,9_6 0
x6,9_7 0
x6,9_8 0
x6,9_15 0
x6,9_16 0
x6,9_21 0
x7,8_6 0
x7,8_7 0
x7,8_8 0
x7,8_15 0
x7,8_16 0
x7,8_21 0
x7,9_6 0
x7,9_7 0
x7,9_8 0
x7,9_15 0
x7,9_16 0
x7,9_21 0
x8,9_6 0
x8,9_7 0
x8,9_8 0
x8,9_15 0
x8,9_16 0
x8,9_21 0
z0 1
z1 1
z2 1
z3 1
z4 1
z5 1
z6 0
z7 0
z8 0
z9 0
p0 0
p1 1
p2 8
p3 16
p4 22
p5 24
p6 25
p7 26
p8 27
p9 28
